<number of tasks>
58

<cycle time>
60

<task times>
1 10
2 53
3 41
4 36
5 35
6 17
7 34
8 23
9 14
10 52
11 33
12 34
13 12
14 52
15 12
16 33
17 44
18 7
19 15
20 13
21 29
22 37
23 43
24 23
25 24
26 9
27 16
28 12
29 26
30 22
31 51
32 47
33 34
34 23
35 12
36 52
37 12
38 33
39 44
40 7
41 15
42 13
43 29
44 37
45 43
46 23
47 24
48 9
49 16
50 12
51 26
52 12
53 52
54 12
55 33
56 44
57 7
58 15

<precedence relations>
1,9
2,25
3,21
3,22
4,10
5,36
6,23
6,24
7,43
8,44
9,11
11,13
11,14
11,15
12,17
13,17
14,17
15,17
16,18
17,20
18,19
19,23
20,21
20,25
21,26
21,44
22,27
23,31
24,31
25,38
26,29
27,30
28,32
28,33
29,31
30,34
31,36
32,45
33,35
34,36
35,43
36,37
36,38
37,39
37,40
37,41
38,52
39,43
40,43
41,42
42,43
43,45
44,45
45,46
45,48
45,49
46,47
46,50
47,51
48,55
49,58
50,58
51,52
52,53
53,54
54,55
54,56
55,57
56,57
57,58

<setup times forward>
1,2:3
1,3:1
1,4:2
1,5:1
1,7:3
1,8:2
1,9:2
1,10:2
1,12:1
1,18:1
1,19:1
1,22:1
1,24:1
1,28:2
1,30:1
1,32:2
1,33:3
1,34:1
1,35:1
2,1:3
2,3:4
2,4:5
2,5:2
2,6:3
2,8:5
2,9:5
2,10:1
2,11:5
2,12:4
2,13:4
2,14:2
2,15:4
2,16:3
2,17:1
2,18:2
2,19:4
2,20:1
2,21:4
2,22:2
2,23:3
2,24:2
2,26:4
2,27:3
2,28:5
2,30:4
2,31:3
2,32:5
2,34:2
2,35:2
2,36:4
2,37:5
2,39:2
2,41:4
2,42:4
2,43:4
2,44:5
2,45:5
2,46:5
2,47:4
2,48:2
2,49:5
2,50:2
2,51:2
3,1:1
3,2:4
3,4:1
3,5:2
3,6:1
3,7:4
3,8:1
3,9:1
3,10:3
3,11:1
3,14:2
3,16:1
3,17:3
3,18:2
3,20:3
3,22:2
3,23:1
3,24:2
3,25:4
3,28:1
3,32:1
3,33:4
3,35:2
4,1:2
4,2:5
4,3:1
4,5:3
4,6:2
4,7:5
4,10:4
4,12:1
4,13:1
4,14:3
4,15:1
4,16:2
4,17:4
4,18:3
4,19:1
4,20:4
4,21:1
4,22:3
4,23:2
4,24:3
4,25:5
4,26:1
4,27:2
4,29:5
4,30:1
4,31:2
4,33:5
4,34:3
4,35:3
4,36:1
4,38:1
4,39:3
4,40:5
4,41:1
4,42:1
4,43:1
4,47:1
4,48:3
4,50:3
4,51:3
4,52:3
4,53:3
4,54:4
4,55:5
4,56:4
4,57:5
4,58:5
5,1:1
5,2:2
5,3:2
5,4:3
5,6:1
5,7:2
5,8:3
5,9:3
5,10:1
5,11:3
5,12:2
5,13:2
5,15:2
5,16:1
5,17:1
5,19:2
5,20:1
5,21:2
5,23:1
5,25:2
5,26:2
5,27:1
5,28:3
5,29:2
5,30:2
5,31:1
5,32:3
5,33:2
5,36:2
5,44:3
6,2:3
6,3:1
6,4:2
6,5:1
6,7:3
6,8:2
6,9:2
6,10:2
6,11:2
6,12:1
6,13:1
6,14:1
6,15:1
6,17:2
6,18:1
6,19:1
6,20:2
6,21:1
6,22:1
6,24:1
6,25:3
6,26:1
6,28:2
6,29:3
6,30:1
6,32:2
6,33:3
6,34:1
6,35:1
6,44:2
7,1:3
7,3:4
7,4:5
7,5:2
7,6:3
7,8:5
7,9:5
7,10:1
7,11:5
7,12:4
7,13:4
7,14:2
7,15:4
7,16:3
7,17:1
7,18:2
7,19:4
7,20:1
7,21:4
7,22:2
7,23:3
7,24:2
7,26:4
7,27:3
7,28:5
7,30:4
7,31:3
7,32:5
7,34:2
7,35:2
7,36:4
7,37:5
7,38:4
7,39:2
7,41:4
7,42:4
7,43:4
7,44:5
8,1:2
8,2:5
8,3:1
8,5:3
8,6:2
8,7:5
8,10:4
8,12:1
8,13:1
8,14:3
8,15:1
8,16:2
8,17:4
8,18:3
8,19:1
8,20:4
8,21:1
8,22:3
8,23:2
8,24:3
8,25:5
8,26:1
8,27:2
8,29:5
8,30:1
8,31:2
8,33:5
8,34:3
8,35:3
8,36:1
8,38:1
8,39:3
8,40:5
8,41:1
8,42:1
8,43:1
9,2:5
9,3:1
9,5:3
9,6:2
9,7:5
9,10:4
9,12:1
9,16:2
9,18:3
9,19:1
9,22:3
9,23:2
9,24:3
9,27:2
9,30:1
9,33:5
9,34:3
9,35:3
10,1:2
10,2:1
10,3:3
10,5:1
10,6:2
10,7:1
10,8:4
10,9:4
10,11:4
10,12:3
10,13:3
10,14:1
10,15:3
10,16:2
10,18:1
10,19:3
10,21:3
10,22:1
10,23:2
10,24:1
10,25:1
10,26:3
10,27:2
10,28:4
10,29:1
10,30:3
10,31:2
10,32:4
10,33:1
10,34:1
10,35:1
10,36:3
10,37:4
10,38:3
10,39:1
10,40:1
10,41:3
10,42:3
10,43:3
10,44:4
10,45:4
10,46:4
10,47:3
10,48:1
10,49:4
10,50:1
10,51:1
10,52:1
10,53:1
10,55:1
10,57:1
10,58:1
11,2:5
11,3:1
11,5:3
11,6:2
11,7:5
11,10:4
11,12:1
11,13:1
11,14:3
11,15:1
11,16:2
11,18:3
11,19:1
11,22:3
11,23:2
11,24:3
11,27:2
11,30:1
11,33:5
11,34:3
11,35:3
12,1:1
12,2:4
12,4:1
12,5:2
12,6:1
12,7:4
12,8:1
12,9:1
12,10:3
12,11:1
12,14:2
12,16:1
12,17:3
12,18:2
12,22:2
12,23:1
12,24:2
12,27:1
12,28:1
12,32:1
12,33:4
12,34:2
12,35:2
13,2:4
13,4:1
13,5:2
13,6:1
13,7:4
13,8:1
13,10:3
13,14:2
13,16:1
13,17:3
13,18:2
13,22:2
13,23:1
13,24:2
13,27:1
13,28:1
13,32:1
13,33:4
13,34:2
13,35:2
14,2:2
14,3:2
14,4:3
14,6:1
14,7:2
14,8:3
14,10:1
14,12:2
14,13:2
14,15:2
14,16:1
14,17:1
14,19:2
14,23:1
14,27:1
14,28:3
14,30:2
14,32:3
14,33:2
15,2:4
15,4:1
15,5:2
15,6:1
15,7:4
15,8:1
15,10:3
15,14:2
15,16:1
15,17:3
15,18:2
15,22:2
15,23:1
15,24:2
15,27:1
15,28:1
15,32:1
15,33:4
15,34:2
15,35:2
16,2:3
16,3:1
16,4:2
16,5:1
16,7:3
16,8:2
16,9:2
16,10:2
16,11:2
16,12:1
16,13:1
16,14:1
16,15:1
16,17:2
16,18:1
16,20:2
16,21:1
16,22:1
16,24:1
16,25:3
16,26:1
16,28:2
16,29:3
16,30:1
16,32:2
16,33:3
16,34:1
16,35:1
16,44:2
17,2:1
17,3:3
17,4:4
17,5:1
17,6:2
17,7:1
17,8:4
17,16:2
17,18:1
17,19:3
17,22:1
17,23:2
17,24:1
17,27:2
17,28:4
17,30:3
17,32:4
17,33:1
17,34:1
17,35:1
18,1:1
18,2:2
18,3:2
18,4:3
18,6:1
18,7:2
18,8:3
18,9:3
18,10:1
18,11:3
18,12:2
18,13:2
18,15:2
18,17:1
18,19:2
18,20:1
18,21:2
18,25:2
18,26:2
18,27:1
18,28:3
18,29:2
18,30:2
18,32:3
18,33:2
18,44:3
19,1:1
19,2:4
19,4:1
19,5:2
19,6:1
19,7:4
19,8:1
19,9:1
19,10:3
19,11:1
19,14:2
19,17:3
19,20:3
19,22:2
19,23:1
19,24:2
19,25:4
19,27:1
19,28:1
19,29:4
19,32:1
19,33:4
19,34:2
19,35:2
19,44:1
20,2:1
20,3:3
20,4:4
20,5:1
20,6:2
20,7:1
20,8:4
20,16:2
20,18:1
20,19:3
20,21:3
20,22:1
20,23:2
20,24:1
20,25:1
20,27:2
20,28:4
20,30:3
20,32:4
20,33:1
20,34:1
20,35:1
21,2:4
21,4:1
21,5:2
21,6:1
21,7:4
21,8:1
21,10:3
21,16:1
21,18:2
21,22:2
21,23:1
21,24:2
21,25:4
21,27:1
21,28:1
21,32:1
21,33:4
21,34:2
21,35:2
21,44:1
22,1:1
22,2:2
22,4:3
22,6:1
22,7:2
22,8:3
22,9:3
22,10:1
22,11:3
22,12:2
22,13:2
22,15:2
22,16:1
22,17:1
22,19:2
22,20:1
22,21:2
22,23:1
22,25:2
22,26:2
22,27:1
22,28:3
22,29:2
22,31:1
22,32:3
22,33:2
22,44:3
23,2:3
23,3:1
23,4:2
23,5:1
23,7:3
23,8:2
23,9:2
23,10:2
23,11:2
23,12:1
23,13:1
23,14:1
23,15:1
23,17:2
23,20:2
23,21:1
23,22:1
23,24:1
23,25:3
23,26:1
23,28:2
23,29:3
23,30:1
23,32:2
23,33:3
23,34:1
23,35:1
23,44:2
24,1:1
24,2:2
24,3:2
24,4:3
24,7:2
24,8:3
24,9:3
24,10:1
24,11:3
24,12:2
24,13:2
24,15:2
24,16:1
24,17:1
24,19:2
24,20:1
24,21:2
24,23:1
24,25:2
24,26:2
24,27:1
24,28:3
24,29:2
24,30:2
24,31:1
24,32:3
24,33:2
24,44:3
25,3:4
25,4:5
25,5:2
25,6:3
25,8:5
25,10:1
25,16:3
25,18:2
25,19:4
25,21:4
25,22:2
25,23:3
25,24:2
25,26:4
25,27:3
25,28:5
25,30:4
25,31:3
25,32:5
25,34:2
25,35:2
25,36:4
25,37:5
25,38:4
25,39:2
25,41:4
25,42:4
25,43:4
25,44:5
25,45:5
25,46:5
25,47:4
25,48:2
25,49:5
25,50:2
25,51:2
26,2:4
26,4:1
26,5:2
26,6:1
26,7:4
26,8:1
26,10:3
26,16:1
26,18:2
26,22:2
26,23:1
26,24:2
26,25:4
26,27:1
26,28:1
26,29:4
26,32:1
26,33:4
26,34:2
26,35:2
26,44:1
27,2:3
27,4:2
27,5:1
27,7:3
27,8:2
27,9:2
27,10:2
27,11:2
27,12:1
27,13:1
27,14:1
27,15:1
27,17:2
27,18:1
27,19:1
27,20:2
27,21:1
27,24:1
27,25:3
27,26:1
27,28:2
27,29:3
27,30:1
27,32:2
27,33:3
27,35:1
27,44:2
28,1:2
28,2:5
28,3:1
28,5:3
28,6:2
28,7:5
28,10:4
28,12:1
28,13:1
28,14:3
28,15:1
28,16:2
28,17:4
28,18:3
28,19:1
28,20:4
28,21:1
28,22:3
28,23:2
28,24:3
28,25:5
28,26:1
28,27:2
28,29:5
28,30:1
28,31:2
28,33:5
28,34:3
28,36:1
28,38:1
28,39:3
28,40:5
28,41:1
28,42:1
29,4:5
29,5:2
29,6:3
29,8:5
29,10:1
29,16:3
29,18:2
29,19:4
29,22:2
29,23:3
29,24:2
29,27:3
29,28:5
29,30:4
29,31:3
29,32:5
29,34:2
29,35:2
29,44:5
30,1:1
30,2:4
30,4:1
30,5:2
30,6:1
30,7:4
30,8:1
30,9:1
30,10:3
30,11:1
30,14:2
30,16:1
30,17:3
30,18:2
30,20:3
30,23:1
30,24:2
30,25:4
30,28:1
30,29:4
30,31:1
30,32:1
30,33:4
30,34:2
30,35:2
30,44:1
31,2:3
31,4:2
31,5:1
31,7:3
31,8:2
31,10:2
31,22:1
31,25:3
31,28:2
31,30:1
31,32:2
31,33:3
31,34:1
31,35:1
31,36:1
31,44:2
32,1:2
32,2:5
32,3:1
32,5:3
32,6:2
32,7:5
32,10:4
32,12:1
32,13:1
32,14:3
32,15:1
32,16:2
32,17:4
32,18:3
32,19:1
32,20:4
32,21:1
32,22:3
32,23:2
32,24:3
32,25:5
32,26:1
32,27:2
32,29:5
32,30:1
32,31:2
32,33:5
32,34:3
32,35:3
32,36:1
32,38:1
32,39:3
32,40:5
32,41:1
32,42:1
32,43:1
33,1:3
33,3:4
33,4:5
33,5:2
33,6:3
33,8:5
33,9:5
33,10:1
33,11:5
33,12:4
33,13:4
33,14:2
33,15:4
33,16:3
33,17:1
33,18:2
33,19:4
33,20:1
33,21:4
33,22:2
33,23:3
33,24:2
33,26:4
33,27:3
33,30:4
33,31:3
33,32:5
33,34:2
33,35:2
33,36:4
33,37:5
33,38:4
33,39:2
33,41:4
33,42:4
33,44:5
34,1:1
34,2:2
34,4:3
34,6:1
34,7:2
34,8:3
34,9:3
34,10:1
34,11:3
34,12:2
34,13:2
34,15:2
34,16:1
34,17:1
34,19:2
34,20:1
34,21:2
34,23:1
34,25:2
34,26:2
34,28:3
34,29:2
34,31:1
34,32:3
34,33:2
34,36:2
34,44:3
35,1:1
35,2:2
35,3:2
35,4:3
35,6:1
35,7:2
35,8:3
35,9:3
35,10:1
35,11:3
35,12:2
35,13:2
35,15:2
35,16:1
35,17:1
35,19:2
35,20:1
35,21:2
35,23:1
35,25:2
35,26:2
35,27:1
35,29:2
35,30:2
35,31:1
35,32:3
35,36:2
35,37:3
35,38:2
35,40:2
35,41:2
35,42:2
35,43:2
35,44:3
36,2:4
36,4:1
36,7:4
36,8:1
36,10:3
36,25:4
36,28:1
36,32:1
36,33:4
36,35:2
36,37:1
36,44:1
37,2:5
37,7:5
37,10:4
37,25:5
37,33:5
37,35:3
37,38:1
37,39:3
37,40:5
37,41:1
38,4:1
38,7:4
38,8:1
38,10:3
38,28:1
38,32:1
38,33:4
38,35:2
38,37:1
38,39:2
38,40:4
38,44:1
38,45:1
38,46:1
38,48:2
38,49:1
38,50:2
38,51:2
38,52:2
39,2:2
39,4:3
39,7:2
39,8:3
39,10:1
39,25:2
39,28:3
39,32:3
39,33:2
39,38:2
39,40:2
39,41:2
39,42:2
39,43:2
39,44:3
40,4:5
40,8:5
40,10:1
40,28:5
40,32:5
40,35:2
40,38:4
40,39:2
40,41:4
40,42:4
40,43:4
40,44:5
41,2:4
41,4:1
41,7:4
41,8:1
41,10:3
41,25:4
41,28:1
41,32:1
41,33:4
41,35:2
41,39:2
41,40:4
41,44:1
42,2:4
42,4:1
42,7:4
42,8:1
42,10:3
42,25:4
42,28:1
42,32:1
42,33:4
42,35:2
42,39:2
42,40:4
42,44:1
43,2:4
43,4:1
43,8:1
43,10:3
43,25:4
43,32:1
43,44:1
43,45:1
44,2:5
44,5:3
44,6:2
44,7:5
44,10:4
44,16:2
44,18:3
44,19:1
44,22:3
44,23:2
44,24:3
44,25:5
44,26:1
44,27:2
44,29:5
44,30:1
44,31:2
44,33:5
44,34:3
44,35:3
44,36:1
44,38:1
44,39:3
44,40:5
44,41:1
44,42:1
44,43:1
45,2:5
45,10:4
45,25:5
45,38:1
45,48:3
46,2:5
46,10:4
46,25:5
46,38:1
46,47:1
46,48:3
46,50:3
47,2:4
47,4:1
47,10:3
47,25:4
47,48:2
47,49:1
47,50:2
47,51:2
48,2:2
48,4:3
48,10:1
48,25:2
48,38:2
48,46:3
48,47:2
48,49:3
48,54:1
48,55:2
48,56:1
49,2:5
49,10:4
49,25:5
49,38:1
49,47:1
49,48:3
49,50:3
49,51:3
49,52:3
49,53:3
49,54:4
49,55:5
49,56:4
49,57:5
49,58:5
50,2:2
50,4:3
50,10:1
50,25:2
50,38:2
50,47:2
50,49:3
50,54:1
50,55:2
50,56:1
50,57:2
50,58:2
51,2:2
51,4:3
51,10:1
51,25:2
51,38:2
51,49:3
52,4:3
52,10:1
52,49:3
53,4:3
53,10:1
53,49:3
53,54:1
54,4:4
54,48:1
54,49:4
54,50:1
54,55:1
55,4:5
55,10:1
55,49:5
55,50:2
55,56:1
56,4:4
56,48:1
56,49:4
56,50:1
56,55:1
56,57:1
57,4:5
57,10:1
57,49:5
57,50:2
58,4:5
58,10:1

<setup times backward>
1,2:3
1,5:1
1,7:3
1,10:2
1,18:1
1,22:1
1,24:1
1,33:3
1,34:1
1,35:1
3,1:1
3,2:4
3,5:2
3,6:1
3,7:4
3,10:3
3,14:2
3,16:1
3,17:3
3,18:2
3,20:3
3,23:1
3,24:2
3,25:4
3,33:4
3,35:2
4,1:2
4,2:5
4,3:1
4,5:3
4,6:2
4,7:5
4,12:1
4,13:1
4,14:3
4,15:1
4,16:2
4,17:4
4,18:3
4,19:1
4,20:4
4,21:1
4,22:3
4,23:2
4,24:3
4,25:5
4,26:1
4,27:2
4,29:5
4,30:1
4,31:2
4,33:5
4,34:3
4,35:3
4,36:1
4,38:1
4,39:3
4,40:5
4,41:1
4,42:1
4,43:1
4,47:1
4,48:3
4,50:3
4,51:3
4,52:3
4,53:3
4,54:4
4,55:5
4,56:4
4,57:5
4,58:5
5,2:2
5,7:2
5,10:1
5,17:1
5,20:1
5,25:2
5,29:2
5,33:2
6,2:3
6,5:1
6,7:3
6,10:2
6,14:1
6,17:2
6,18:1
6,20:2
6,22:1
6,25:3
6,29:3
6,33:3
6,34:1
6,35:1
8,1:2
8,2:5
8,3:1
8,5:3
8,6:2
8,7:5
8,10:4
8,12:1
8,13:1
8,14:3
8,15:1
8,16:2
8,17:4
8,18:3
8,19:1
8,20:4
8,21:1
8,22:3
8,23:2
8,24:3
8,25:5
8,26:1
8,27:2
8,29:5
8,30:1
8,31:2
8,33:5
8,34:3
8,35:3
8,36:1
8,38:1
8,39:3
8,40:5
8,41:1
8,42:1
8,43:1
9,1:2
9,2:5
9,3:1
9,5:3
9,6:2
9,7:5
9,10:4
9,12:1
9,16:2
9,18:3
9,19:1
9,22:3
9,23:2
9,24:3
9,27:2
9,30:1
9,33:5
9,34:3
9,35:3
10,2:1
10,7:1
10,25:1
10,29:1
10,33:1
10,40:1
10,55:1
10,57:1
10,58:1
11,1:2
11,2:5
11,3:1
11,5:3
11,6:2
11,7:5
11,10:4
11,12:1
11,16:2
11,18:3
11,19:1
11,22:3
11,23:2
11,24:3
11,27:2
11,30:1
11,33:5
11,34:3
11,35:3
12,1:1
12,2:4
12,5:2
12,6:1
12,7:4
12,10:3
12,14:2
12,16:1
12,18:2
12,22:2
12,23:1
12,24:2
12,27:1
12,33:4
12,34:2
12,35:2
13,1:1
13,2:4
13,5:2
13,6:1
13,7:4
13,10:3
13,14:2
13,16:1
13,18:2
13,22:2
13,23:1
13,24:2
13,27:1
13,33:4
13,34:2
13,35:2
14,2:2
14,7:2
14,10:1
14,33:2
15,1:1
15,2:4
15,5:2
15,6:1
15,7:4
15,10:3
15,14:2
15,16:1
15,18:2
15,22:2
15,23:1
15,24:2
15,27:1
15,33:4
15,34:2
15,35:2
16,2:3
16,5:1
16,7:3
16,10:2
16,14:1
16,17:2
16,20:2
16,22:1
16,24:1
16,25:3
16,29:3
16,33:3
16,34:1
16,35:1
17,2:1
17,7:1
17,33:1
18,2:2
18,7:2
18,10:1
18,17:1
18,20:1
18,25:2
18,29:2
18,33:2
19,1:1
19,2:4
19,5:2
19,6:1
19,7:4
19,10:3
19,14:2
19,16:1
19,17:3
19,18:2
19,20:3
19,22:2
19,24:2
19,25:4
19,27:1
19,29:4
19,33:4
19,34:2
19,35:2
20,2:1
20,7:1
20,33:1
21,1:1
21,2:4
21,5:2
21,6:1
21,7:4
21,10:3
21,14:2
21,16:1
21,17:3
21,18:2
21,20:3
21,22:2
21,23:1
21,24:2
21,25:4
21,27:1
21,33:4
21,34:2
21,35:2
22,2:2
22,7:2
22,10:1
22,17:1
22,20:1
22,25:2
22,29:2
22,33:2
23,2:3
23,5:1
23,7:3
23,10:2
23,14:1
23,17:2
23,18:1
23,20:2
23,22:1
23,24:1
23,25:3
23,29:3
23,33:3
23,34:1
23,35:1
24,2:2
24,7:2
24,10:1
24,17:1
24,20:1
24,25:2
24,29:2
24,33:2
26,1:1
26,2:4
26,5:2
26,6:1
26,7:4
26,10:3
26,14:2
26,16:1
26,17:3
26,18:2
26,20:3
26,22:2
26,23:1
26,24:2
26,25:4
26,27:1
26,33:4
26,34:2
26,35:2
27,2:3
27,5:1
27,7:3
27,10:2
27,14:1
27,17:2
27,18:1
27,20:2
27,22:1
27,24:1
27,25:3
27,29:3
27,33:3
27,35:1
28,1:2
28,2:5
28,3:1
28,5:3
28,6:2
28,7:5
28,10:4
28,12:1
28,13:1
28,14:3
28,15:1
28,16:2
28,17:4
28,18:3
28,19:1
28,20:4
28,21:1
28,22:3
28,23:2
28,24:3
28,25:5
28,26:1
28,27:2
28,29:5
28,30:1
28,31:2
28,34:3
28,36:1
28,38:1
28,39:3
28,40:5
28,41:1
28,42:1
30,1:1
30,2:4
30,5:2
30,6:1
30,7:4
30,10:3
30,14:2
30,16:1
30,17:3
30,18:2
30,20:3
30,22:2
30,23:1
30,24:2
30,25:4
30,27:1
30,29:4
30,31:1
30,33:4
30,35:2
31,2:3
31,5:1
31,7:3
31,10:2
31,14:1
31,17:2
31,18:1
31,20:2
31,22:1
31,24:1
31,25:3
31,29:3
31,33:3
31,34:1
31,35:1
32,1:2
32,2:5
32,3:1
32,5:3
32,6:2
32,7:5
32,10:4
32,12:1
32,13:1
32,14:3
32,15:1
32,16:2
32,17:4
32,18:3
32,19:1
32,20:4
32,21:1
32,22:3
32,23:2
32,24:3
32,25:5
32,26:1
32,27:2
32,29:5
32,30:1
32,31:2
32,33:5
32,34:3
32,35:3
32,36:1
32,38:1
32,39:3
32,40:5
32,41:1
32,42:1
32,43:1
34,2:2
34,7:2
34,10:1
34,17:1
34,20:1
34,25:2
34,29:2
34,33:2
35,2:2
35,7:2
35,10:1
35,17:1
35,20:1
35,25:2
35,29:2
35,33:2
35,40:2
36,1:1
36,2:4
36,5:2
36,6:1
36,7:4
36,10:3
36,14:2
36,16:1
36,17:3
36,18:2
36,20:3
36,22:2
36,23:1
36,24:2
36,25:4
36,27:1
36,29:4
36,31:1
36,33:4
36,34:2
36,35:2
37,1:2
37,2:5
37,3:1
37,5:3
37,6:2
37,7:5
37,10:4
37,12:1
37,13:1
37,14:3
37,15:1
37,16:2
37,17:4
37,18:3
37,19:1
37,20:4
37,21:1
37,22:3
37,23:2
37,24:3
37,25:5
37,26:1
37,27:2
37,29:5
37,30:1
37,31:2
37,33:5
37,34:3
37,35:3
37,36:1
37,38:1
38,1:1
38,2:4
38,5:2
38,6:1
38,7:4
38,10:3
38,14:2
38,16:1
38,17:3
38,18:2
38,20:3
38,22:2
38,23:1
38,24:2
38,25:4
38,27:1
38,29:4
38,31:1
38,33:4
38,34:2
38,35:2
38,39:2
38,40:4
38,48:2
38,50:2
38,51:2
39,2:2
39,7:2
39,10:1
39,17:1
39,20:1
39,25:2
39,29:2
39,33:2
39,40:2
41,1:1
41,2:4
41,5:2
41,6:1
41,7:4
41,10:3
41,14:2
41,16:1
41,17:3
41,18:2
41,20:3
41,22:2
41,23:1
41,24:2
41,25:4
41,27:1
41,29:4
41,31:1
41,33:4
41,34:2
41,35:2
41,39:2
41,40:4
42,1:1
42,2:4
42,5:2
42,6:1
42,7:4
42,10:3
42,14:2
42,16:1
42,17:3
42,18:2
42,20:3
42,22:2
42,23:1
42,24:2
42,25:4
42,27:1
42,29:4
42,31:1
42,33:4
42,34:2
42,35:2
42,39:2
42,40:4
43,1:1
43,2:4
43,5:2
43,6:1
43,7:4
43,10:3
43,14:2
43,16:1
43,17:3
43,18:2
43,20:3
43,22:2
43,23:1
43,24:2
43,25:4
43,27:1
43,29:4
43,31:1
43,33:4
43,34:2
43,35:2
43,39:2
43,40:4
44,1:2
44,2:5
44,3:1
44,5:3
44,6:2
44,7:5
44,10:4
44,12:1
44,13:1
44,14:3
44,15:1
44,16:2
44,17:4
44,18:3
44,19:1
44,20:4
44,21:1
44,22:3
44,23:2
44,24:3
44,25:5
44,26:1
44,27:2
44,29:5
44,30:1
44,31:2
44,33:5
44,34:3
44,35:3
44,36:1
44,38:1
44,39:3
44,40:5
44,41:1
44,42:1
44,43:1
45,1:2
45,2:5
45,3:1
45,5:3
45,6:2
45,7:5
45,10:4
45,12:1
45,13:1
45,14:3
45,15:1
45,16:2
45,17:4
45,18:3
45,19:1
45,20:4
45,21:1
45,22:3
45,23:2
45,24:3
45,25:5
45,26:1
45,27:2
45,29:5
45,30:1
45,31:2
45,33:5
45,34:3
45,35:3
45,36:1
45,38:1
45,39:3
45,40:5
45,41:1
45,42:1
45,43:1
46,1:2
46,2:5
46,3:1
46,5:3
46,6:2
46,7:5
46,10:4
46,12:1
46,13:1
46,14:3
46,15:1
46,16:2
46,17:4
46,18:3
46,19:1
46,20:4
46,21:1
46,22:3
46,23:2
46,24:3
46,25:5
46,26:1
46,27:2
46,29:5
46,30:1
46,31:2
46,33:5
46,34:3
46,35:3
46,36:1
46,38:1
46,39:3
46,40:5
46,41:1
46,42:1
46,43:1
46,48:3
47,1:1
47,2:4
47,5:2
47,6:1
47,7:4
47,10:3
47,14:2
47,16:1
47,17:3
47,18:2
47,20:3
47,22:2
47,23:1
47,24:2
47,25:4
47,27:1
47,29:4
47,31:1
47,33:4
47,34:2
47,35:2
47,39:2
47,40:4
47,48:2
47,50:2
48,2:2
48,7:2
48,10:1
48,17:1
48,20:1
48,25:2
48,29:2
48,33:2
48,40:2
48,54:1
48,56:1
49,1:2
49,2:5
49,3:1
49,5:3
49,6:2
49,7:5
49,10:4
49,12:1
49,13:1
49,14:3
49,15:1
49,16:2
49,17:4
49,18:3
49,19:1
49,20:4
49,21:1
49,22:3
49,23:2
49,24:3
49,25:5
49,26:1
49,27:2
49,29:5
49,30:1
49,31:2
49,33:5
49,34:3
49,35:3
49,36:1
49,38:1
49,39:3
49,40:5
49,41:1
49,42:1
49,43:1
49,47:1
49,48:3
49,50:3
49,51:3
49,52:3
49,53:3
49,54:4
49,55:5
49,56:4
49,57:5
50,2:2
50,7:2
50,10:1
50,17:1
50,20:1
50,25:2
50,29:2
50,33:2
50,40:2
50,54:1
50,55:2
50,56:1
50,57:2
51,2:2
51,7:2
51,10:1
51,17:1
51,20:1
51,25:2
51,29:2
51,33:2
51,40:2
52,2:2
52,7:2
52,10:1
52,17:1
52,20:1
52,25:2
52,29:2
52,33:2
52,40:2
53,2:2
53,7:2
53,10:1
53,17:1
53,20:1
53,25:2
53,29:2
53,33:2
53,40:2
54,2:1
54,7:1
54,25:1
54,29:1
54,33:1
54,40:1
56,2:1
56,7:1
56,25:1
56,29:1
56,33:1
56,40:1
56,55:1

<end>

<optimal SALBP-1 value>
27


<rand seed>
467321153

